(set-info :Origin "This instance was generated by: BanditFuzz-- an RL fuzzer for SMT solvers" )
(set-info :Author "Joe Scott, Fed Mora, Vijay Ganesh" )
(set-info :Contact "Joe Scott, joseph.scott@uwaterloo.ca")
(set-logic QF_BV)
(declare-const bool_0 Bool)
(declare-const bool_1 Bool)
(declare-const bool_2 Bool)
(declare-const bool_3 Bool)
(declare-const bool_4 Bool)
(declare-const bv_0 (_ BitVec 32))
(declare-const bv_1 (_ BitVec 32))
(declare-const bv_2 (_ BitVec 32))
(declare-const bv_3 (_ BitVec 32))
(declare-const bv_4 (_ BitVec 32))
(assert (bvsgt (bvnor (bvxor bv_1 #xb76e2fac ) (bvxor bv_4 bv_1)) (bvshl (bvsub bv_4 bv_1) (bvxnor #x03f51baf  bv_1))))
(assert (bvsge (bvlshr (bvsmod bv_1 #xe54892a0 ) (bvlshr bv_1 #xdfc7c96b )) (bvsmod (bvsdiv #x6cd507d1  bv_2) (bvxor #xac088d7d  bv_0))))
(assert (=> (bvsge (bvadd #xd1541bfd  bv_2) (bvnand #x79ef2bc0  #x502f34ec )) (not (bvsge bv_3 bv_1))))
(assert (bvsge (bvsrem (bvudiv bv_3 bv_1) (bvudiv bv_1 bv_1)) (bvashr (bvlshr #x272f425c  #x09643202 ) (bvor bv_1 bv_3))))
(assert (bvsle (bvshl (bvsub #xb02a7a2f  bv_2) (bvsmod bv_1 #x5a6a5b8d )) (bvudiv (bvudiv bv_2 bv_0) (bvadd bv_1 bv_0))))
(check-sat)
(exit)
